(set-logic HORN)
(declare-fun state (Int (Array Int Int) (Array Int Int) (Array Int Int) (Array Int Int) Int Int (Array Int Int) (Array Int Int) Int Int Int Int Int Int Int Int Int Int Int Int Bool Bool Bool Bool Bool (Array Int Int)) Bool)
(assert (forall ((|A_20| Int) (|B_20| (Array Int Int)) (|C_20| (Array Int Int)) (|D_20| (Array Int Int)) (|E_20| (Array Int Int)) (|F_20| Int) (|G_20| Int) (|H_20| (Array Int Int)) (|I_20| (Array Int Int)) (|J_20| Int) (|K_20| Int) (|L_20| Int) (|M_20| Int) (|N_20| Int) (|O_20| Int) (|P_20| Int) (|Q_20| Int) (|R_20| Int) (|S_20| Int) (|T_20| Int) (|U_20| Int) (|W_10| Bool) (|.loc.5| Bool) (|.loc.6| Bool) (|.loc.7| Bool) (|.loc.8| Bool) (|W_0| (Array Int Int)) (|.x.444| Int) (|.x.442| (Array Int Int)) (|.x.440| Int) (|.x.438| (Array Int Int)) (|.x.434| Int) (|.x.436| (Array Int Int)) (|.x.435| (Array Int Int)) (|V_20| Bool) (|.x.445| Int) (|.x.446| Int) (|.x.447| Int) (|.x.449| Int) (|.loc.11| Bool) (|.loc.10| Bool) (|.x.450| Int) (|.x.448| Int) (|.x.453| Int) (|.loc.9| Bool) (|.x.454| Int) (|.x.452| Int) (|.loc.12| Bool) (|.x.451| Int) (|.x.437| (Array Int Int)) (|.x.443| Int) (|.x.439| Int) (|.x.441| (Array Int Int)) (|.xtv.1| (Array Int Int))) (=> (and (and (and (and .loc.5 (not .loc.6)) (not .loc.7)) (not .loc.8)) (and (and (and (and (and (= D_20 E_20) (not W_10)) (= F_20 G_20)) (= J_20 K_20)) (= H_20 I_20)) (= B_20 C_20))) (state |A_20| |B_20| |C_20| |D_20| |E_20| |F_20| |G_20| |H_20| |I_20| |J_20| |K_20| |L_20| |M_20| |N_20| |O_20| |P_20| |Q_20| |R_20| |S_20| |T_20| |U_20| |W_10| |.loc.5| |.loc.6| |.loc.7| |.loc.8| |W_0|))))
(assert (forall ((|A_20| Int) (|B_20| (Array Int Int)) (|C_20| (Array Int Int)) (|D_20| (Array Int Int)) (|E_20| (Array Int Int)) (|F_20| Int) (|G_20| Int) (|H_20| (Array Int Int)) (|I_20| (Array Int Int)) (|J_20| Int) (|K_20| Int) (|L_20| Int) (|M_20| Int) (|N_20| Int) (|O_20| Int) (|P_20| Int) (|Q_20| Int) (|R_20| Int) (|S_20| Int) (|T_20| Int) (|U_20| Int) (|W_10| Bool) (|.loc.5| Bool) (|.loc.6| Bool) (|.loc.7| Bool) (|.loc.8| Bool) (|W_0| (Array Int Int)) (|.x.444| Int) (|.x.442| (Array Int Int)) (|.x.440| Int) (|.x.438| (Array Int Int)) (|.x.434| Int) (|.x.436| (Array Int Int)) (|.x.435| (Array Int Int)) (|V_20| Bool) (|.x.445| Int) (|.x.446| Int) (|.x.447| Int) (|.x.449| Int) (|.loc.11| Bool) (|.loc.10| Bool) (|.x.450| Int) (|.x.448| Int) (|.x.453| Int) (|.loc.9| Bool) (|.x.454| Int) (|.x.452| Int) (|.loc.12| Bool) (|.x.451| Int) (|.x.437| (Array Int Int)) (|.x.443| Int) (|.x.439| Int) (|.x.441| (Array Int Int)) (|.xtv.1| (Array Int Int))) (=> (and (state |A_20| |B_20| |C_20| |D_20| |E_20| |F_20| |G_20| |H_20| |I_20| |J_20| |K_20| |L_20| |M_20| |N_20| |O_20| |P_20| |Q_20| |R_20| |S_20| |T_20| |U_20| |W_10| |.loc.5| |.loc.6| |.loc.7| |.loc.8| |W_0|) (let ((.def_37 (not .loc.6))) (let ((.def_39 (not .loc.7))) (let ((.def_41 (not .loc.8))) (let ((.def_73 (= B_20 .x.435))) (let ((.def_77 (= L_20 .x.445))) (let ((.def_80 (= M_20 .x.446))) (let ((.def_83 (= N_20 .x.447))) (let ((.def_86 (= P_20 .x.449))) (let ((.def_88 (not .loc.5))) (let ((.def_99 (= W_10 V_20))) (let ((.def_106 (not .loc.10))) (let ((.def_109 (= O_20 0))) (let ((.def_113 (and .def_83 (and .def_80 (and .def_73 .def_77))))) (let ((.def_114 (and .def_86 .def_113))) (let ((.def_118 (not .loc.11))) (let ((.def_124 (= Q_20 .x.450))) (let ((.def_126 (= O_20 .x.448))) (let ((.def_129 (= T_20 .x.453))) (let ((.def_132 (not .loc.9))) (let ((.def_139 (select D_20 N_20))) (let ((.def_143 (<= 100000 U_20))) (let ((.def_163 (= U_20 .x.454))) (let ((.def_165 (= S_20 .x.452))) (let ((.def_175 (and .def_86 (and .def_113 .def_126)))) (let ((.def_191 (and .def_129 (and .def_165 (and .def_124 .def_175))))) (let ((.def_202 (and W_10 .def_73))) (let ((.def_211 (and .def_163 (and .def_129 (and .def_165 (and .def_124 (and .def_86 (and .def_126 (and .def_83 (and .def_80 (and .def_77 .def_202))))))))))) (let ((.def_222 (and .def_163 .def_191))) (let ((.def_243 (not .loc.12))) (let ((.def_246 (and .loc.6 .def_222))) (let ((.def_248 (and .def_88 (and .loc.7 .def_246)))) (let ((.def_255 (<= 100000 R_20))) (let ((.def_256 (or W_10 .def_255))) (let ((.def_260 (= R_20 .x.451))) (let ((.def_262 (= D_20 .x.437))) (let ((.def_274 (and (not .def_255) (= (+ R_20 (* (- 1) .x.451)) (- 1))))) (let ((.def_293 (and .def_124 (and .def_86 (and .def_126 (and .def_83 (and .def_80 (and .def_77 (and .def_73 .def_262))))))))) (let ((.def_297 (and .def_163 (and .def_129 (and .def_165 (and .def_260 .def_293)))))) (let ((.def_319 (and .def_163 (and .def_129 (and .def_165 (and .def_260 (and .def_124 (and .def_86 (and .def_126 (and .def_83 (and .def_80 (and .def_77 (and .def_202 .def_262))))))))))))) (let ((.def_320 (and .loc.6 .def_319))) (let ((.def_333 (and .loc.5 (and .def_163 (and .def_129 (and .def_165 .def_293)))))) (let ((.def_342 (= .x.451 0))) (let ((.def_343 (or W_10 .def_342))) (and (and (= K_20 .x.444) (and (= I_20 .x.442) (and (= G_20 .x.440) (and (= E_20 .x.438) (and (= A_20 .x.434) (= C_20 .x.436)))))) (or (and (or (or (or (or (or (or (or (or (or (or (or (and (or (or (and (or (or (or (and .def_39 (or (and (or (and (or (and (or (and (and (and (and (and (and .def_73 V_20) .def_77) .def_80) .def_83) .def_86) .def_88) (and (or W_10 (and (= .x.449 0) (= .x.435 (store B_20 N_20 0)))) (and (and .loc.5 (or V_20 (= .x.445 .x.449))) .def_99))) (and (and .loc.6 .loc.11) .def_106)) (and (or W_10 .def_109) (and .def_37 (and (and .def_99 (and .loc.10 (and .loc.5 .def_114))) .def_118)))) (and (and (and .def_124 .def_126) .def_129) .def_132)) (and (or W_10 (and (= .x.448 .x.453) (and (= .x.450 (select .def_139 (+ M_20 (* 4 U_20)))) (and (not .def_143) (= .x.453 (ite (= .x.450 44) 1 0)))))) (and .def_37 (and .def_118 (and .def_99 (and .def_106 (and .loc.9 (and .def_88 .def_114)))))))) (and .loc.8 (and .def_163 .def_165))) (and (or V_20 (= (+ U_20 (* (- 1) .x.454)) (- 1))) (and .def_41 (and .def_37 (and .def_118 (and .def_99 (and .def_106 (and .def_132 (and .def_88 (and .def_129 .def_175))))))))))) (and (or W_10 (= .x.454 0)) (and .def_41 (and .def_118 (and .def_99 (and .def_106 (and .def_132 (and .loc.7 (and .loc.6 (and .loc.5 .def_191)))))))))) (and .def_37 (and .def_118 (and .def_99 (and .loc.10 (and .loc.9 (and .def_39 (and .def_88 (and .loc.8 .def_211))))))))) (and (or W_10 .def_143) (and .def_37 (and .def_118 (and .def_99 (and .loc.10 (and .loc.9 (and .def_39 (and .def_88 (and .loc.8 .def_222)))))))))) .loc.12) (and (and .def_41 (and .def_99 (and .loc.11 (and .loc.10 (and .loc.9 (and .def_88 (and .loc.7 (and .loc.6 .def_211)))))))) .def_243)) (and (and .def_243 (and .def_41 (and .def_99 (and .loc.11 (and .loc.10 (and .loc.9 .def_248)))))) .def_256)) (and .def_260 .def_262)) (and (or W_10 (and (= .x.437 (store D_20 N_20 (store .def_139 (+ M_20 (* 4 R_20)) 44))) .def_274)) (and .def_243 (and .def_41 (and .def_99 (and .def_132 (and .loc.11 (and .loc.10 .def_248)))))))) (and (or W_10 (not .def_109)) (and .def_243 (and .def_37 (and .def_118 (and .def_99 (and .def_106 (and .def_132 (and .def_39 (and .loc.8 (and .loc.5 .def_297))))))))))) (and .def_243 (and .def_118 (and .def_99 (and .def_106 (and .def_132 (and .def_39 (and .def_88 (and .loc.8 .def_320))))))))) (and (and .def_243 (and .def_41 (and .def_37 (and .def_99 (and .def_132 (and .loc.11 (and .loc.10 (and .loc.7 .def_333)))))))) .def_343)) (and .def_243 (and .def_41 (and .def_37 (and .def_99 (and .def_106 (and .loc.11 (and .loc.9 (and .def_88 (and .loc.7 .def_319)))))))))) (and .def_256 (and .def_243 (and .def_41 (and .def_37 (and .def_99 (and .def_106 (and .loc.11 (and .loc.9 (and .def_88 (and .loc.7 .def_297))))))))))) (and (or W_10 (and .def_274 (= .x.437 (store D_20 N_20 (store .def_139 (+ M_20 (* 4 R_20)) 43))))) (and .def_243 (and .def_41 (and .def_37 (and .def_99 (and .def_106 (and .def_132 (and .loc.11 (and .def_88 (and .loc.7 .def_222))))))))))) (and .def_343 (and .def_243 (and .def_41 (and .def_99 (and .def_106 (and .def_132 (and .loc.11 (and .def_39 (and .loc.6 .def_333)))))))))) (and .def_243 (and .def_41 (and .def_118 (and .def_99 (and .loc.10 (and .loc.9 (and .def_39 (and .def_88 .def_320))))))))) (and .def_256 (and .def_243 (and .def_41 (and .def_118 (and .def_99 (and .loc.10 (and .loc.9 (and .def_39 (and .def_88 (and .loc.6 .def_297))))))))))) (and (or W_10 (and .def_274 (= .x.437 (store D_20 N_20 (store .def_139 (+ M_20 (* 4 R_20)) 42))))) (and .def_243 (and .def_41 (and .def_118 (and .def_99 (and .def_132 (and .loc.10 (and .def_39 (and .def_88 .def_246)))))))))) (and (= J_20 .x.443) (and (= F_20 .x.439) (= H_20 .x.441)))) (and (or W_10 (and (and (= .x.443 0) (= .x.439 0)) (= W_0 (store B_20 0 0)))) (and (or V_20 (and (and (and (and (and (and .def_342 (not (<= .x.434 .x.447))) (not (= .x.447 0))) (= .x.446 0)) (= (select W_0 .x.447) 0)) (= .x.441 (store H_20 .x.447 400000))) (= .x.435 (store W_0 .x.447 1)))) (and .def_243 (and .def_41 (and .def_37 (and .def_118 (and .def_99 (and .def_132 (and .loc.10 (and .def_39 (and .loc.5 (and .def_129 (and .def_126 (and .def_77 .def_262)))))))))))))))))))))))))))))))))))))))))))))))))))))))))))) (state |.x.434| |.x.435| |.x.436| |.x.437| |.x.438| |.x.439| |.x.440| |.x.441| |.x.442| |.x.443| |.x.444| |.x.445| |.x.446| |.x.447| |.x.448| |.x.449| |.x.450| |.x.451| |.x.452| |.x.453| |.x.454| |V_20| |.loc.9| |.loc.10| |.loc.11| |.loc.12| |.xtv.1|))))
(assert (forall ((|A_20| Int) (|B_20| (Array Int Int)) (|C_20| (Array Int Int)) (|D_20| (Array Int Int)) (|E_20| (Array Int Int)) (|F_20| Int) (|G_20| Int) (|H_20| (Array Int Int)) (|I_20| (Array Int Int)) (|J_20| Int) (|K_20| Int) (|L_20| Int) (|M_20| Int) (|N_20| Int) (|O_20| Int) (|P_20| Int) (|Q_20| Int) (|R_20| Int) (|S_20| Int) (|T_20| Int) (|U_20| Int) (|W_10| Bool) (|.loc.5| Bool) (|.loc.6| Bool) (|.loc.7| Bool) (|.loc.8| Bool) (|W_0| (Array Int Int)) (|.x.444| Int) (|.x.442| (Array Int Int)) (|.x.440| Int) (|.x.438| (Array Int Int)) (|.x.434| Int) (|.x.436| (Array Int Int)) (|.x.435| (Array Int Int)) (|V_20| Bool) (|.x.445| Int) (|.x.446| Int) (|.x.447| Int) (|.x.449| Int) (|.loc.11| Bool) (|.loc.10| Bool) (|.x.450| Int) (|.x.448| Int) (|.x.453| Int) (|.loc.9| Bool) (|.x.454| Int) (|.x.452| Int) (|.loc.12| Bool) (|.x.451| Int) (|.x.437| (Array Int Int)) (|.x.443| Int) (|.x.439| Int) (|.x.441| (Array Int Int)) (|.xtv.1| (Array Int Int))) (=> (state |A_20| |B_20| |C_20| |D_20| |E_20| |F_20| |G_20| |H_20| |I_20| |J_20| |K_20| |L_20| |M_20| |N_20| |O_20| |P_20| |Q_20| |R_20| |S_20| |T_20| |U_20| |W_10| |.loc.5| |.loc.6| |.loc.7| |.loc.8| |W_0|) (not (and W_10 (and .loc.8 (and .loc.7 (and (not .loc.6) (not .loc.5)))))))))
(check-sat)
